c preprocessed version of MeredithGraph, 70 vertices, 140 edges
p td 70 140
0 17
0 34
0 45
0 56
1 30
1 34
1 45
1 56
2 3
2 4
2 5
2 14
6 10
6 11
6 13
7 10
7 11
7 13
7 46
8 10
8 11
8 13
8 47
9 10
9 11
9 13
9 21
12 31
12 34
12 45
12 56
14 18
14 19
14 20
15 18
15 19
15 20
15 53
16 18
16 19
16 20
16 54
17 18
17 19
17 20
21 26
21 27
21 28
22 26
22 27
22 28
22 61
23 6
23 34
23 45
23 56
24 26
24 27
24 28
24 62
25 26
25 27
25 28
29 33
29 35
29 36
29 63
30 33
30 35
30 36
31 33
31 35
31 36
32 33
32 35
32 36
32 37
37 41
37 42
37 43
38 41
38 42
38 43
39 41
39 42
39 43
40 41
40 42
40 43
40 44
44 49
44 50
44 51
46 49
46 50
46 51
47 49
47 50
47 51
48 49
48 50
48 51
48 52
52 57
52 58
52 59
53 57
53 58
53 59
54 57
54 58
54 59
55 57
55 58
55 59
55 60
60 64
60 65
60 66
61 64
61 65
61 66
62 64
62 65
62 66
63 64
63 65
63 66
67 3
67 4
67 5
67 25
68 3
68 4
68 5
68 38
69 3
69 4
69 5
69 39
